SPISlave_unrolled.smt2
; SMT-LIBv2 description generated by Yosys 0.53 (git sha1 53c22ab7c0ced80861c7536c5dae682c30fb5834, clang++ 17.0.0 -fPIC -O3)
; yosys-smt2-stdt
; yosys-smt2-module SPISlave
(declare-datatype |SPISlave_s| ((|SPISlave_mk|
  (|SPISlave_is| Bool)
  (|byte_transfered| Bool) ; \byte_transfered
  (|en| Bool) ; \en
  (|en_d__0_| Bool) ; \en_d [0]
  (|en_d__1_| (_ BitVec 1)) ; \en_d [1]
  (|falling_edge| Bool) ; \falling_edge
  (|falling_sclk_edge| Bool) ; \falling_sclk_edge
  (|miso| Bool) ; \miso
  (|mosi| Bool) ; \mosi
  (|mosi_d__0_| Bool) ; \mosi_d [0]
  (|mosi_d__1_| (_ BitVec 1)) ; \mosi_d [1]
  (|mosi_in| Bool) ; \mosi_in
  (|not_first_cycle| Bool) ; \not_first_cycle
  (|prev_en| Bool) ; \prev_en
  (|prev_sclk| Bool) ; \prev_sclk
  (|rising_edge| Bool) ; \rising_edge
  (|rising_sclk_edge| Bool) ; \rising_sclk_edge
  (|sclk| Bool) ; \sclk
  (|sclk_d__0_| Bool) ; \sclk_d [0]
  (|sclk_d__1_| (_ BitVec 1)) ; \sclk_d [1]
  (|sclk_in| Bool) ; \sclk_in
  (|send_item| (_ BitVec 8)) ; \send_item
  (|ss_in| Bool) ; \ss_in
  (|st| Bool) ; \st
  (|start| Bool) ; \start
  (|stutter_d__0_| Bool) ; \stutter_d [0]
  (|stutter_d__1_| (_ BitVec 1)) ; \stutter_d [1]
  (|stutter_in| Bool) ; \stutter_in
  (|tx_buffer__0_| Bool) ; \tx_buffer [0]
  (|tx_buffer__1_| Bool) ; \tx_buffer [1]
  (|tx_buffer__2_| Bool) ; \tx_buffer [2]
  (|tx_buffer__3_| Bool) ; \tx_buffer [3]
  (|tx_buffer__4_| Bool) ; \tx_buffer [4]
  (|tx_buffer__5_| Bool) ; \tx_buffer [5]
  (|tx_buffer__6_| Bool) ; \tx_buffer [6]
  (|tx_buffer__7_| Bool) ; \tx_buffer [7]
  (|tx_pos__0_| Bool) ; \tx_pos [0]
  (|tx_pos__1_| Bool) ; \tx_pos [1]
  (|tx_pos__2_| Bool) ; \tx_pos [2]
  (|tx_pos__3_| Bool) ; \tx_pos [3]
  (|tx_pos__4_| Bool) ; \tx_pos [4]
)))
; yosys-smt2-witness {"offset": 0, "path": ["\\byte_transfered"], "smtname": 0, "smtoffset": 0, "type": "reg", "width": 1}
; yosys-smt2-output byte_transfered 1
; yosys-smt2-register byte_transfered 1
; yosys-smt2-wire byte_transfered 1
(define-fun |SPISlave_n byte_transfered| ((state |SPISlave_s|)) Bool (|byte_transfered| state))
; yosys-smt2-witness {"offset": 0, "path": ["\\en"], "smtname": 1, "smtoffset": 0, "type": "reg", "width": 1}
; yosys-smt2-register en 1
; yosys-smt2-wire en 1
(define-fun |SPISlave_n en| ((state |SPISlave_s|)) Bool (|en| state))
; yosys-smt2-witness {"offset": 0, "path": ["\\en_d"], "smtname": 2, "smtoffset": 0, "type": "reg", "width": 1}
; yosys-smt2-register en_d 2
; yosys-smt2-wire en_d 2
(define-fun |SPISlave_n en_d| ((state |SPISlave_s|)) (_ BitVec 2) (concat (|en_d__1_| state) (ite (|en_d__0_| state) #b1 #b0)))
; yosys-smt2-witness {"offset": 0, "path": ["\\falling_edge"], "smtname": 4, "smtoffset": 0, "type": "reg", "width": 1}
; yosys-smt2-register falling_edge 1
; yosys-smt2-wire falling_edge 1
(define-fun |SPISlave_n falling_edge| ((state |SPISlave_s|)) Bool (|falling_edge| state))
; yosys-smt2-witness {"offset": 0, "path": ["\\falling_sclk_edge"], "smtname": 5, "smtoffset": 0, "type": "reg", "width": 1}
; yosys-smt2-output falling_sclk_edge 1
; yosys-smt2-register falling_sclk_edge 1
; yosys-smt2-wire falling_sclk_edge 1
(define-fun |SPISlave_n falling_sclk_edge| ((state |SPISlave_s|)) Bool (|falling_sclk_edge| state))
; yosys-smt2-witness {"offset": 0, "path": ["\\miso"], "smtname": 6, "smtoffset": 0, "type": "reg", "width": 1}
; yosys-smt2-output miso 1
; yosys-smt2-register miso 1
; yosys-smt2-wire miso 1
(define-fun |SPISlave_n miso| ((state |SPISlave_s|)) Bool (|miso| state))
; yosys-smt2-witness {"offset": 0, "path": ["\\mosi"], "smtname": 7, "smtoffset": 0, "type": "reg", "width": 1}
; yosys-smt2-output mosi 1
; yosys-smt2-register mosi 1
; yosys-smt2-wire mosi 1
(define-fun |SPISlave_n mosi| ((state |SPISlave_s|)) Bool (|mosi| state))
; yosys-smt2-witness {"offset": 0, "path": ["\\mosi_d"], "smtname": 8, "smtoffset": 0, "type": "reg", "width": 1}
; yosys-smt2-register mosi_d 2
; yosys-smt2-wire mosi_d 2
(define-fun |SPISlave_n mosi_d| ((state |SPISlave_s|)) (_ BitVec 2) (concat (|mosi_d__1_| state) (ite (|mosi_d__0_| state) #b1 #b0)))
; yosys-smt2-input mosi_in 1
; yosys-smt2-wire mosi_in 1
; yosys-smt2-witness {"offset": 0, "path": ["\\mosi_in"], "smtname": "mosi_in", "smtoffset": 0, "type": "input", "width": 1}
(define-fun |SPISlave_n mosi_in| ((state |SPISlave_s|)) Bool (|mosi_in| state))
; yosys-smt2-wire mosi_v 1
(define-fun |SPISlave_n mosi_v| ((state |SPISlave_s|)) Bool (|mosi_d__0_| state))
; yosys-smt2-witness {"offset": 0, "path": ["\\not_first_cycle"], "smtname": 11, "smtoffset": 0, "type": "reg", "width": 1}
; yosys-smt2-register not_first_cycle 1
; yosys-smt2-wire not_first_cycle 1
(define-fun |SPISlave_n not_first_cycle| ((state |SPISlave_s|)) Bool (|not_first_cycle| state))
; yosys-smt2-witness {"offset": 0, "path": ["\\prev_en"], "smtname": 12, "smtoffset": 0, "type": "reg", "width": 1}
; yosys-smt2-register prev_en 1
; yosys-smt2-wire prev_en 1
(define-fun |SPISlave_n prev_en| ((state |SPISlave_s|)) Bool (|prev_en| state))
; yosys-smt2-witness {"offset": 0, "path": ["\\prev_sclk"], "smtname": 13, "smtoffset": 0, "type": "reg", "width": 1}
; yosys-smt2-register prev_sclk 1
; yosys-smt2-wire prev_sclk 1
(define-fun |SPISlave_n prev_sclk| ((state |SPISlave_s|)) Bool (|prev_sclk| state))
; yosys-smt2-witness {"offset": 0, "path": ["\\rising_edge"], "smtname": 14, "smtoffset": 0, "type": "reg", "width": 1}
; yosys-smt2-register rising_edge 1
; yosys-smt2-wire rising_edge 1
(define-fun |SPISlave_n rising_edge| ((state |SPISlave_s|)) Bool (|rising_edge| state))
; yosys-smt2-witness {"offset": 0, "path": ["\\rising_sclk_edge"], "smtname": 15, "smtoffset": 0, "type": "reg", "width": 1}
; yosys-smt2-output rising_sclk_edge 1
; yosys-smt2-register rising_sclk_edge 1
; yosys-smt2-wire rising_sclk_edge 1
(define-fun |SPISlave_n rising_sclk_edge| ((state |SPISlave_s|)) Bool (|rising_sclk_edge| state))
; yosys-smt2-witness {"offset": 0, "path": ["\\sclk"], "smtname": 16, "smtoffset": 0, "type": "reg", "width": 1}
; yosys-smt2-output sclk 1
; yosys-smt2-register sclk 1
; yosys-smt2-wire sclk 1
(define-fun |SPISlave_n sclk| ((state |SPISlave_s|)) Bool (|sclk| state))
; yosys-smt2-witness {"offset": 0, "path": ["\\sclk_d"], "smtname": 17, "smtoffset": 0, "type": "reg", "width": 1}
; yosys-smt2-register sclk_d 2
; yosys-smt2-wire sclk_d 2
(define-fun |SPISlave_n sclk_d| ((state |SPISlave_s|)) (_ BitVec 2) (concat (|sclk_d__1_| state) (ite (|sclk_d__0_| state) #b1 #b0)))
; yosys-smt2-input sclk_in 1
; yosys-smt2-wire sclk_in 1
; yosys-smt2-witness {"offset": 0, "path": ["\\sclk_in"], "smtname": "sclk_in", "smtoffset": 0, "type": "input", "width": 1}
(define-fun |SPISlave_n sclk_in| ((state |SPISlave_s|)) Bool (|sclk_in| state))
; yosys-smt2-wire sclk_v 1
(define-fun |SPISlave_n sclk_v| ((state |SPISlave_s|)) Bool (|sclk_d__0_| state))
; yosys-smt2-input send_item 8
; yosys-smt2-wire send_item 8
; yosys-smt2-witness {"offset": 0, "path": ["\\send_item"], "smtname": "send_item", "smtoffset": 0, "type": "input", "width": 8}
(define-fun |SPISlave_n send_item| ((state |SPISlave_s|)) (_ BitVec 8) (|send_item| state))
(define-fun |SPISlave#21| ((state |SPISlave_s|)) Bool (not (|en| state))) ; \ss
; yosys-smt2-output ss 1
; yosys-smt2-wire ss 1
(define-fun |SPISlave_n ss| ((state |SPISlave_s|)) Bool (|SPISlave#21| state))
; yosys-smt2-input ss_in 1
; yosys-smt2-wire ss_in 1
; yosys-smt2-witness {"offset": 0, "path": ["\\ss_in"], "smtname": "ss_in", "smtoffset": 0, "type": "input", "width": 1}
(define-fun |SPISlave_n ss_in| ((state |SPISlave_s|)) Bool (|ss_in| state))
; yosys-smt2-witness {"offset": 0, "path": ["\\st"], "smtname": 23, "smtoffset": 0, "type": "reg", "width": 1}
; yosys-smt2-output st 1
; yosys-smt2-register st 1
; yosys-smt2-wire st 1
(define-fun |SPISlave_n st| ((state |SPISlave_s|)) Bool (|st| state))
; yosys-smt2-witness {"offset": 0, "path": ["\\start"], "smtname": 24, "smtoffset": 0, "type": "reg", "width": 1}
; yosys-smt2-output start 1
; yosys-smt2-register start 1
; yosys-smt2-wire start 1
(define-fun |SPISlave_n start| ((state |SPISlave_s|)) Bool (|start| state))
; yosys-smt2-witness {"offset": 0, "path": ["\\stutter_d"], "smtname": 25, "smtoffset": 0, "type": "reg", "width": 1}
; yosys-smt2-register stutter_d 2
; yosys-smt2-wire stutter_d 2
(define-fun |SPISlave_n stutter_d| ((state |SPISlave_s|)) (_ BitVec 2) (concat (|stutter_d__1_| state) (ite (|stutter_d__0_| state) #b1 #b0)))
; yosys-smt2-input stutter_in 1
; yosys-smt2-wire stutter_in 1
; yosys-smt2-witness {"offset": 0, "path": ["\\stutter_in"], "smtname": "stutter_in", "smtoffset": 0, "type": "input", "width": 1}
(define-fun |SPISlave_n stutter_in| ((state |SPISlave_s|)) Bool (|stutter_in| state))
; yosys-smt2-wire stutter_v 1
(define-fun |SPISlave_n stutter_v| ((state |SPISlave_s|)) Bool (|stutter_d__0_| state))
; yosys-smt2-witness {"offset": 0, "path": ["\\tx_buffer"], "smtname": 28, "smtoffset": 0, "type": "reg", "width": 1}
; yosys-smt2-witness {"offset": 0, "path": ["\\tx_buffer"], "smtname": 29, "smtoffset": 0, "type": "reg", "width": 1}
; yosys-smt2-witness {"offset": 0, "path": ["\\tx_buffer"], "smtname": 30, "smtoffset": 0, "type": "reg", "width": 1}
; yosys-smt2-witness {"offset": 0, "path": ["\\tx_buffer"], "smtname": 31, "smtoffset": 0, "type": "reg", "width": 1}
; yosys-smt2-witness {"offset": 0, "path": ["\\tx_buffer"], "smtname": 32, "smtoffset": 0, "type": "reg", "width": 1}
; yosys-smt2-witness {"offset": 0, "path": ["\\tx_buffer"], "smtname": 33, "smtoffset": 0, "type": "reg", "width": 1}
; yosys-smt2-witness {"offset": 0, "path": ["\\tx_buffer"], "smtname": 34, "smtoffset": 0, "type": "reg", "width": 1}
; yosys-smt2-witness {"offset": 0, "path": ["\\tx_buffer"], "smtname": 35, "smtoffset": 0, "type": "reg", "width": 1}
; yosys-smt2-register tx_buffer 8
; yosys-smt2-wire tx_buffer 8
(define-fun |SPISlave_n tx_buffer| ((state |SPISlave_s|)) (_ BitVec 8) (concat (ite (|tx_buffer__7_| state) #b1 #b0) (concat (ite (|tx_buffer__6_| state) #b1 #b0) (concat (ite (|tx_buffer__5_| state) #b1 #b0) (concat (ite (|tx_buffer__4_| state) #b1 #b0) (concat (ite (|tx_buffer__3_| state) #b1 #b0) (concat (ite (|tx_buffer__2_| state) #b1 #b0) (concat (ite (|tx_buffer__1_| state) #b1 #b0) (ite (|tx_buffer__0_| state) #b1 #b0)))))))))
; yosys-smt2-witness {"offset": 0, "path": ["\\tx_pos"], "smtname": 36, "smtoffset": 0, "type": "reg", "width": 1}
; yosys-smt2-witness {"offset": 0, "path": ["\\tx_pos"], "smtname": 37, "smtoffset": 0, "type": "reg", "width": 1}
; yosys-smt2-witness {"offset": 0, "path": ["\\tx_pos"], "smtname": 38, "smtoffset": 0, "type": "reg", "width": 1}
; yosys-smt2-witness {"offset": 0, "path": ["\\tx_pos"], "smtname": 39, "smtoffset": 0, "type": "reg", "width": 1}
; yosys-smt2-witness {"offset": 0, "path": ["\\tx_pos"], "smtname": 40, "smtoffset": 0, "type": "reg", "width": 1}
; yosys-smt2-register tx_pos 5
; yosys-smt2-wire tx_pos 5
(define-fun |SPISlave_n tx_pos| ((state |SPISlave_s|)) (_ BitVec 5) (concat (ite (|tx_pos__4_| state) #b1 #b0) (concat (ite (|tx_pos__3_| state) #b1 #b0) (concat (ite (|tx_pos__2_| state) #b1 #b0) (concat (ite (|tx_pos__1_| state) #b1 #b0) (ite (|tx_pos__0_| state) #b1 #b0))))))
(define-fun |SPISlave#41| ((state |SPISlave_s|)) Bool (and (|byte_transfered| state) (|tx_pos__4_| state))) ; $abc$471$new_n104
(define-fun |SPISlave#42| ((state |SPISlave_s|)) Bool (ite (|falling_edge| state) (|SPISlave#41| state) (|tx_pos__4_| state))) ; $abc$471$new_n105
(define-fun |SPISlave#43| ((state |SPISlave_s|)) Bool (ite (|en_d__0_| state) (|SPISlave#42| state) (|tx_pos__4_| state))) ; $abc$471$new_n106
(define-fun |SPISlave#44| ((state |SPISlave_s|)) Bool (ite (|stutter_d__0_| state) (|tx_pos__4_| state) (|SPISlave#43| state))) ; $procdff$133.D [4]
(define-fun |SPISlave#45| ((state |SPISlave_s|)) Bool (and (|byte_transfered| state) (|tx_pos__3_| state))) ; $abc$471$new_n100
(define-fun |SPISlave#46| ((state |SPISlave_s|)) Bool (ite (|falling_edge| state) (|SPISlave#45| state) (|tx_pos__3_| state))) ; $abc$471$new_n101
(define-fun |SPISlave#47| ((state |SPISlave_s|)) Bool (ite (|en_d__0_| state) (|SPISlave#46| state) (|tx_pos__3_| state))) ; $abc$471$new_n102
(define-fun |SPISlave#48| ((state |SPISlave_s|)) Bool (ite (|stutter_d__0_| state) (|tx_pos__3_| state) (|SPISlave#47| state))) ; $procdff$133.D [3]
(define-fun |SPISlave#49| ((state |SPISlave_s|)) Bool (not (and (|tx_pos__1_| state) (|tx_pos__0_| state)))) ; $abc$471$new_n94
(define-fun |SPISlave#50| ((state |SPISlave_s|)) Bool (not (|tx_pos__2_| state))) ; $abc$471$new_n93
(define-fun |SPISlave#51| ((state |SPISlave_s|)) Bool (xor (|SPISlave#49| state) (|SPISlave#50| state))) ; $abc$471$new_n95
(define-fun |SPISlave#52| ((state |SPISlave_s|)) Bool (ite (|byte_transfered| state) (|tx_pos__2_| state) (|SPISlave#51| state))) ; $abc$471$new_n96
(define-fun |SPISlave#53| ((state |SPISlave_s|)) Bool (ite (|falling_edge| state) (|SPISlave#52| state) (|tx_pos__2_| state))) ; $abc$471$new_n97
(define-fun |SPISlave#54| ((state |SPISlave_s|)) Bool (ite (|en_d__0_| state) (|SPISlave#53| state) (|tx_pos__2_| state))) ; $abc$471$new_n98
(define-fun |SPISlave#55| ((state |SPISlave_s|)) Bool (ite (|stutter_d__0_| state) (|tx_pos__2_| state) (|SPISlave#54| state))) ; $procdff$133.D [2]
(define-fun |SPISlave#56| ((state |SPISlave_s|)) Bool (xor (|tx_pos__1_| state) (|tx_pos__0_| state))) ; $abc$471$new_n88
(define-fun |SPISlave#57| ((state |SPISlave_s|)) Bool (ite (|byte_transfered| state) (|tx_pos__1_| state) (|SPISlave#56| state))) ; $abc$471$new_n89
(define-fun |SPISlave#58| ((state |SPISlave_s|)) Bool (ite (|falling_edge| state) (|SPISlave#57| state) (|tx_pos__1_| state))) ; $abc$471$new_n90
(define-fun |SPISlave#59| ((state |SPISlave_s|)) Bool (ite (|en_d__0_| state) (|SPISlave#58| state) (|tx_pos__1_| state))) ; $abc$471$new_n91
(define-fun |SPISlave#60| ((state |SPISlave_s|)) Bool (ite (|stutter_d__0_| state) (|tx_pos__1_| state) (|SPISlave#59| state))) ; $procdff$133.D [1]
(define-fun |SPISlave#61| ((state |SPISlave_s|)) Bool (not (xor (|byte_transfered| state) (|tx_pos__0_| state)))) ; $abc$471$new_n84
(define-fun |SPISlave#62| ((state |SPISlave_s|)) Bool (ite (|falling_edge| state) (|SPISlave#61| state) (|tx_pos__0_| state))) ; $abc$471$new_n85
(define-fun |SPISlave#63| ((state |SPISlave_s|)) Bool (ite (|en_d__0_| state) (|SPISlave#62| state) (|tx_pos__0_| state))) ; $abc$471$new_n86
(define-fun |SPISlave#64| ((state |SPISlave_s|)) Bool (ite (|stutter_d__0_| state) (|tx_pos__0_| state) (|SPISlave#63| state))) ; $procdff$133.D [0]
(define-fun |SPISlave#65| ((state |SPISlave_s|)) Bool (ite (|not_first_cycle| state) (|tx_buffer__7_| state) (= ((_ extract 7 7) (|send_item| state)) #b1))) ; $procdff$112.D [7]
(define-fun |SPISlave#66| ((state |SPISlave_s|)) Bool (ite (|not_first_cycle| state) (|tx_buffer__6_| state) (= ((_ extract 6 6) (|send_item| state)) #b1))) ; $procdff$112.D [6]
(define-fun |SPISlave#67| ((state |SPISlave_s|)) Bool (ite (|not_first_cycle| state) (|tx_buffer__5_| state) (= ((_ extract 5 5) (|send_item| state)) #b1))) ; $procdff$112.D [5]
(define-fun |SPISlave#68| ((state |SPISlave_s|)) Bool (ite (|not_first_cycle| state) (|tx_buffer__4_| state) (= ((_ extract 4 4) (|send_item| state)) #b1))) ; $procdff$112.D [4]
(define-fun |SPISlave#69| ((state |SPISlave_s|)) Bool (ite (|not_first_cycle| state) (|tx_buffer__3_| state) (= ((_ extract 3 3) (|send_item| state)) #b1))) ; $procdff$112.D [3]
(define-fun |SPISlave#70| ((state |SPISlave_s|)) Bool (ite (|not_first_cycle| state) (|tx_buffer__2_| state) (= ((_ extract 2 2) (|send_item| state)) #b1))) ; $procdff$112.D [2]
(define-fun |SPISlave#71| ((state |SPISlave_s|)) Bool (ite (|not_first_cycle| state) (|tx_buffer__1_| state) (= ((_ extract 1 1) (|send_item| state)) #b1))) ; $procdff$112.D [1]
(define-fun |SPISlave#72| ((state |SPISlave_s|)) Bool (ite (|not_first_cycle| state) (|tx_buffer__0_| state) (= ((_ extract 0 0) (|send_item| state)) #b1))) ; $procdff$112.D [0]
(define-fun |SPISlave#73| ((state |SPISlave_s|)) Bool (and (|en_d__0_| state) (not (|prev_en| state)))) ; $abc$471$new_n118
(define-fun |SPISlave#74| ((state |SPISlave_s|)) Bool (ite (|stutter_d__0_| state) (|start| state) (|SPISlave#73| state))) ; $procdff$121.D
(define-fun |SPISlave#75| ((state |SPISlave_s|)) Bool (and (|st| state) (|stutter_d__0_| state))) ; $procdff$118.D
(define-fun |SPISlave#76| ((state |SPISlave_s|)) Bool (ite (|stutter_d__0_| state) (|sclk_d__0_| state) (|sclk_in| state))) ; $procdff$125.D [0]
(define-fun |SPISlave#77| ((state |SPISlave_s|)) Bool (ite (|stutter_d__0_| state) (|sclk| state) (|sclk_d__0_| state))) ; $procdff$116.D
(define-fun |SPISlave#78| ((state |SPISlave_s|)) Bool (ite (|stutter_d__0_| state) (|rising_sclk_edge| state) (|rising_edge| state))) ; $procdff$119.D
(define-fun |SPISlave#79| ((state |SPISlave_s|)) Bool (and (|sclk_in| state) (not (|prev_sclk| state)))) ; $abc$471$new_n116
(define-fun |SPISlave#80| ((state |SPISlave_s|)) Bool (ite (|stutter_d__0_| state) (|rising_edge| state) (|SPISlave#79| state))) ; $procdff$122.D
(define-fun |SPISlave#81| ((state |SPISlave_s|)) Bool (ite (|stutter_d__0_| state) (|prev_sclk| state) (|sclk_in| state))) ; $procdff$124.D
(define-fun |SPISlave#82| ((state |SPISlave_s|)) Bool (ite (|stutter_d__0_| state) (|prev_en| state) (|en_d__0_| state))) ; $procdff$132.D
(define-fun |SPISlave#83| ((state |SPISlave_s|)) Bool (ite (|stutter_d__0_| state) (|mosi_d__0_| state) (|mosi_in| state))) ; $procdff$126.D [0]
(define-fun |SPISlave#84| ((state |SPISlave_s|)) Bool (ite (|stutter_d__0_| state) (|mosi| state) (|mosi_d__0_| state))) ; $procdff$117.D
(define-fun |SPISlave#85| ((state |SPISlave_s|)) Bool (ite (|tx_pos__0_| state) (|tx_buffer__7_| state) (|tx_buffer__6_| state))) ; $abc$471$new_n136
(define-fun |SPISlave#86| ((state |SPISlave_s|)) Bool (ite (|tx_pos__0_| state) (|tx_buffer__5_| state) (|tx_buffer__4_| state))) ; $abc$471$new_n135
(define-fun |SPISlave#87| ((state |SPISlave_s|)) Bool (ite (|tx_pos__1_| state) (|SPISlave#85| state) (|SPISlave#86| state))) ; $abc$471$new_n137
(define-fun |SPISlave#88| ((state |SPISlave_s|)) Bool (ite (|tx_pos__0_| state) (|tx_buffer__3_| state) (|tx_buffer__2_| state))) ; $abc$471$new_n133
(define-fun |SPISlave#89| ((state |SPISlave_s|)) Bool (ite (|tx_pos__0_| state) (|tx_buffer__1_| state) (|tx_buffer__0_| state))) ; $abc$471$new_n132
(define-fun |SPISlave#90| ((state |SPISlave_s|)) Bool (ite (|tx_pos__1_| state) (|SPISlave#88| state) (|SPISlave#89| state))) ; $abc$471$new_n134
(define-fun |SPISlave#91| ((state |SPISlave_s|)) Bool (ite (|tx_pos__2_| state) (|SPISlave#87| state) (|SPISlave#90| state))) ; $abc$471$new_n138
(define-fun |SPISlave#92| ((state |SPISlave_s|)) Bool (ite (|byte_transfered| state) (|miso| state) (|SPISlave#91| state))) ; $abc$471$new_n139
(define-fun |SPISlave#93| ((state |SPISlave_s|)) Bool (ite (|falling_edge| state) (|SPISlave#92| state) (|miso| state))) ; $abc$471$new_n140
(define-fun |SPISlave#94| ((state |SPISlave_s|)) Bool (ite (|en_d__0_| state) (|SPISlave#93| state) (|miso| state))) ; $abc$471$new_n141
(define-fun |SPISlave#95| ((state |SPISlave_s|)) Bool (ite (|stutter_d__0_| state) (|miso| state) (|SPISlave#94| state))) ; $procdff$114.D
(define-fun |SPISlave#96| ((state |SPISlave_s|)) Bool (ite (|stutter_d__0_| state) (|falling_sclk_edge| state) (|falling_edge| state))) ; $procdff$120.D
(define-fun |SPISlave#97| ((state |SPISlave_s|)) Bool (and (|prev_sclk| state) (not (|sclk_in| state)))) ; $abc$471$new_n114
(define-fun |SPISlave#98| ((state |SPISlave_s|)) Bool (ite (|stutter_d__0_| state) (|falling_edge| state) (|SPISlave#97| state))) ; $procdff$123.D
(define-fun |SPISlave#99| ((state |SPISlave_s|)) Bool (not (|ss_in| state))) ; $abc$471$new_n109
(define-fun |SPISlave#100| ((state |SPISlave_s|)) Bool (ite (|stutter_d__0_| state) (|en_d__0_| state) (|SPISlave#99| state))) ; $procdff$127.D [0]
(define-fun |SPISlave#101| ((state |SPISlave_s|)) Bool (ite (|stutter_d__0_| state) (|en| state) (|en_d__0_| state))) ; $procdff$134.D
(define-fun |SPISlave#102| ((state |SPISlave_s|)) Bool (or (|tx_pos__3_| state) (not (|tx_pos__2_| state)))) ; $abc$471$new_n124
(define-fun |SPISlave#103| ((state |SPISlave_s|)) Bool (not (or (|SPISlave#102| state) (|SPISlave#49| state)))) ; $abc$471$new_n125
(define-fun |SPISlave#104| ((state |SPISlave_s|)) Bool (and (|SPISlave#103| state) (not (|tx_pos__4_| state)))) ; $abc$471$new_n126
(define-fun |SPISlave#105| ((state |SPISlave_s|)) Bool (or (|SPISlave#104| state) (|byte_transfered| state))) ; $abc$471$new_n127
(define-fun |SPISlave#106| ((state |SPISlave_s|)) Bool (ite (|falling_edge| state) (|SPISlave#105| state) (|byte_transfered| state))) ; $abc$471$new_n128
(define-fun |SPISlave#107| ((state |SPISlave_s|)) Bool (not (|en_d__0_| state))) ; $abc$471$new_n82
(define-fun |SPISlave#108| ((state |SPISlave_s|)) Bool (and (|SPISlave#106| state) (not (|SPISlave#107| state)))) ; $abc$471$new_n129
(define-fun |SPISlave#109| ((state |SPISlave_s|)) Bool (ite (|stutter_d__0_| state) (|byte_transfered| state) (|SPISlave#108| state))) ; $procdff$115.D
(define-fun |SPISlave_a| ((state |SPISlave_s|)) Bool true)
(define-fun |SPISlave_u| ((state |SPISlave_s|)) Bool true)
(define-fun |SPISlave_i| ((state |SPISlave_s|)) Bool (and
  (= (|byte_transfered| state) false) ; byte_transfered
  (= (|en| state) false) ; en
  (= (bvand (concat (|en_d__1_| state) (ite (|en_d__0_| state) #b1 #b0)) #b01) #b00) ; en_d
  (= (|falling_edge| state) false) ; falling_edge
  (= (|falling_sclk_edge| state) false) ; falling_sclk_edge
  (= (|miso| state) false) ; miso
  (= (|mosi| state) false) ; mosi
  (= (bvand (concat (|mosi_d__1_| state) (ite (|mosi_d__0_| state) #b1 #b0)) #b01) #b00) ; mosi_d
  (= (|not_first_cycle| state) false) ; not_first_cycle
  (= (|prev_en| state) false) ; prev_en
  (= (|prev_sclk| state) false) ; prev_sclk
  (= (|rising_edge| state) false) ; rising_edge
  (= (|rising_sclk_edge| state) false) ; rising_sclk_edge
  (= (|sclk| state) false) ; sclk
  (= (bvand (concat (|sclk_d__1_| state) (ite (|sclk_d__0_| state) #b1 #b0)) #b01) #b00) ; sclk_d
  (= (|st| state) false) ; st
  (= (|start| state) false) ; start
  (= (bvand (concat (|stutter_d__1_| state) (ite (|stutter_d__0_| state) #b1 #b0)) #b01) #b00) ; stutter_d
  (= (concat (ite (|tx_buffer__7_| state) #b1 #b0) (concat (ite (|tx_buffer__6_| state) #b1 #b0) (concat (ite (|tx_buffer__5_| state) #b1 #b0) (concat (ite (|tx_buffer__4_| state) #b1 #b0) (concat (ite (|tx_buffer__3_| state) #b1 #b0) (concat (ite (|tx_buffer__2_| state) #b1 #b0) (concat (ite (|tx_buffer__1_| state) #b1 #b0) (ite (|tx_buffer__0_| state) #b1 #b0)))))))) #b00000000) ; tx_buffer
  (= (concat (ite (|tx_pos__4_| state) #b1 #b0) (concat (ite (|tx_pos__3_| state) #b1 #b0) (concat (ite (|tx_pos__2_| state) #b1 #b0) (concat (ite (|tx_pos__1_| state) #b1 #b0) (ite (|tx_pos__0_| state) #b1 #b0))))) #b00000) ; tx_pos
))
(define-fun |SPISlave_h| ((state |SPISlave_s|)) Bool true)
(define-fun |SPISlave_t| ((state |SPISlave_s|) (next_state |SPISlave_s|)) Bool (and
  (= (|SPISlave#44| state) (|tx_pos__4_| next_state)) ; $auto$ff.cc:266:slice$400 \tx_pos [4]
  (= (|SPISlave#48| state) (|tx_pos__3_| next_state)) ; $auto$ff.cc:266:slice$399 \tx_pos [3]
  (= (|SPISlave#55| state) (|tx_pos__2_| next_state)) ; $auto$ff.cc:266:slice$398 \tx_pos [2]
  (= (|SPISlave#60| state) (|tx_pos__1_| next_state)) ; $auto$ff.cc:266:slice$397 \tx_pos [1]
  (= (|SPISlave#64| state) (|tx_pos__0_| next_state)) ; $auto$ff.cc:266:slice$396 \tx_pos [0]
  (= (|SPISlave#65| state) (|tx_buffer__7_| next_state)) ; $auto$ff.cc:266:slice$369 \tx_buffer [7]
  (= (|SPISlave#66| state) (|tx_buffer__6_| next_state)) ; $auto$ff.cc:266:slice$368 \tx_buffer [6]
  (= (|SPISlave#67| state) (|tx_buffer__5_| next_state)) ; $auto$ff.cc:266:slice$367 \tx_buffer [5]
  (= (|SPISlave#68| state) (|tx_buffer__4_| next_state)) ; $auto$ff.cc:266:slice$366 \tx_buffer [4]
  (= (|SPISlave#69| state) (|tx_buffer__3_| next_state)) ; $auto$ff.cc:266:slice$365 \tx_buffer [3]
  (= (|SPISlave#70| state) (|tx_buffer__2_| next_state)) ; $auto$ff.cc:266:slice$364 \tx_buffer [2]
  (= (|SPISlave#71| state) (|tx_buffer__1_| next_state)) ; $auto$ff.cc:266:slice$363 \tx_buffer [1]
  (= (|SPISlave#72| state) (|tx_buffer__0_| next_state)) ; $auto$ff.cc:266:slice$362 \tx_buffer [0]
  (= (|stutter_in| state) (|stutter_d__0_| next_state)) ; $auto$ff.cc:266:slice$393 \stutter_d [0]
  (= (|SPISlave#74| state) (|start| next_state)) ; $auto$ff.cc:266:slice$383 \start
  (= (|SPISlave#75| state) (|st| next_state)) ; $auto$ff.cc:266:slice$380 \st
  (= (|SPISlave#76| state) (|sclk_d__0_| next_state)) ; $auto$ff.cc:266:slice$387 \sclk_d [0]
  (= (|SPISlave#77| state) (|sclk| next_state)) ; $auto$ff.cc:266:slice$378 \sclk
  (= (|SPISlave#78| state) (|rising_sclk_edge| next_state)) ; $auto$ff.cc:266:slice$381 \rising_sclk_edge
  (= (|SPISlave#80| state) (|rising_edge| next_state)) ; $auto$ff.cc:266:slice$384 \rising_edge
  (= (|SPISlave#81| state) (|prev_sclk| next_state)) ; $auto$ff.cc:266:slice$386 \prev_sclk
  (= (|SPISlave#82| state) (|prev_en| next_state)) ; $auto$ff.cc:266:slice$395 \prev_en
  (= true (|not_first_cycle| next_state)) ; $auto$ff.cc:266:slice$375 \not_first_cycle
  (= (|SPISlave#83| state) (|mosi_d__0_| next_state)) ; $auto$ff.cc:266:slice$389 \mosi_d [0]
  (= (|SPISlave#84| state) (|mosi| next_state)) ; $auto$ff.cc:266:slice$379 \mosi
  (= (|SPISlave#95| state) (|miso| next_state)) ; $auto$ff.cc:266:slice$376 \miso
  (= (|SPISlave#96| state) (|falling_sclk_edge| next_state)) ; $auto$ff.cc:266:slice$382 \falling_sclk_edge
  (= (|SPISlave#98| state) (|falling_edge| next_state)) ; $auto$ff.cc:266:slice$385 \falling_edge
  (= (|SPISlave#100| state) (|en_d__0_| next_state)) ; $auto$ff.cc:266:slice$391 \en_d [0]
  (= (|SPISlave#101| state) (|en| next_state)) ; $auto$ff.cc:266:slice$401 \en
  (= (|SPISlave#109| state) (|byte_transfered| next_state)) ; $auto$ff.cc:266:slice$377 \byte_transfered
)) ; end of module SPISlave
; yosys-smt2-topmod SPISlave
; end of yosys output

; Probes for variable en
(declare-const |probe_en_B_0| Bool)
(declare-const |probe_en_B_1| Bool)
(declare-const |probe_en_B_2| Bool)
(declare-const |probe_en_B_3| Bool)
(declare-const |probe_en_B_4| Bool)
(declare-const |probe_en_B_5| Bool)
(declare-const |probe_en_B_6| Bool)
(declare-const |probe_en_B_7| Bool)
(declare-const |probe_en_B_8| Bool)

; Probes for variable miso
(declare-const |probe_miso_B_0| Bool)
(declare-const |probe_miso_B_1| Bool)
(declare-const |probe_miso_B_2| Bool)
(declare-const |probe_miso_B_3| Bool)
(declare-const |probe_miso_B_4| Bool)
(declare-const |probe_miso_B_5| Bool)
(declare-const |probe_miso_B_6| Bool)
(declare-const |probe_miso_B_7| Bool)
(declare-const |probe_miso_B_8| Bool)

; Probes for variable sclk
(declare-const |probe_sclk_B_0| Bool)
(declare-const |probe_sclk_B_1| Bool)
(declare-const |probe_sclk_B_2| Bool)
(declare-const |probe_sclk_B_3| Bool)
(declare-const |probe_sclk_B_4| Bool)
(declare-const |probe_sclk_B_5| Bool)
(declare-const |probe_sclk_B_6| Bool)
(declare-const |probe_sclk_B_7| Bool)
(declare-const |probe_sclk_B_8| Bool)

; Probes for variable tx_buffer
(declare-const |probe_tx_buffer_B_0| (_ BitVec 8))
(declare-const |probe_tx_buffer_B_1| (_ BitVec 8))
(declare-const |probe_tx_buffer_B_2| (_ BitVec 8))
(declare-const |probe_tx_buffer_B_3| (_ BitVec 8))
(declare-const |probe_tx_buffer_B_4| (_ BitVec 8))
(declare-const |probe_tx_buffer_B_5| (_ BitVec 8))
(declare-const |probe_tx_buffer_B_6| (_ BitVec 8))
(declare-const |probe_tx_buffer_B_7| (_ BitVec 8))
(declare-const |probe_tx_buffer_B_8| (_ BitVec 8))

; Unrolled states
(declare-const |s_B_0| |SPISlave_s|)
(declare-const |s_B_1| |SPISlave_s|)
(declare-const |s_B_2| |SPISlave_s|)
(declare-const |s_B_3| |SPISlave_s|)
(declare-const |s_B_4| |SPISlave_s|)
(declare-const |s_B_5| |SPISlave_s|)
(declare-const |s_B_6| |SPISlave_s|)
(declare-const |s_B_7| |SPISlave_s|)
(declare-const |s_B_8| |SPISlave_s|)

; Initial and Next-state constraints
(assert (and (|SPISlave_i| |s_B_0|) (|SPISlave_t| s_B_0 s_B_1) (|SPISlave_t| s_B_1 s_B_2) (|SPISlave_t| s_B_2 s_B_3) (|SPISlave_t| s_B_3 s_B_4) (|SPISlave_t| s_B_4 s_B_5) (|SPISlave_t| s_B_5 s_B_6) (|SPISlave_t| s_B_6 s_B_7) (|SPISlave_t| s_B_7 s_B_8) (= |probe_en_B_0| (|SPISlave_n en| s_B_0)) (= |probe_en_B_1| (|SPISlave_n en| s_B_1)) (= |probe_en_B_2| (|SPISlave_n en| s_B_2)) (= |probe_en_B_3| (|SPISlave_n en| s_B_3)) (= |probe_en_B_4| (|SPISlave_n en| s_B_4)) (= |probe_en_B_5| (|SPISlave_n en| s_B_5)) (= |probe_en_B_6| (|SPISlave_n en| s_B_6)) (= |probe_en_B_7| (|SPISlave_n en| s_B_7)) (= |probe_en_B_8| (|SPISlave_n en| s_B_8)) (= |probe_miso_B_0| (|SPISlave_n miso| s_B_0)) (= |probe_miso_B_1| (|SPISlave_n miso| s_B_1)) (= |probe_miso_B_2| (|SPISlave_n miso| s_B_2)) (= |probe_miso_B_3| (|SPISlave_n miso| s_B_3)) (= |probe_miso_B_4| (|SPISlave_n miso| s_B_4)) (= |probe_miso_B_5| (|SPISlave_n miso| s_B_5)) (= |probe_miso_B_6| (|SPISlave_n miso| s_B_6)) (= |probe_miso_B_7| (|SPISlave_n miso| s_B_7)) (= |probe_miso_B_8| (|SPISlave_n miso| s_B_8)) (= |probe_sclk_B_0| (|SPISlave_n sclk| s_B_0)) (= |probe_sclk_B_1| (|SPISlave_n sclk| s_B_1)) (= |probe_sclk_B_2| (|SPISlave_n sclk| s_B_2)) (= |probe_sclk_B_3| (|SPISlave_n sclk| s_B_3)) (= |probe_sclk_B_4| (|SPISlave_n sclk| s_B_4)) (= |probe_sclk_B_5| (|SPISlave_n sclk| s_B_5)) (= |probe_sclk_B_6| (|SPISlave_n sclk| s_B_6)) (= |probe_sclk_B_7| (|SPISlave_n sclk| s_B_7)) (= |probe_sclk_B_8| (|SPISlave_n sclk| s_B_8)) (= |probe_tx_buffer_B_0| (|SPISlave_n tx_buffer| s_B_0)) (= |probe_tx_buffer_B_1| (|SPISlave_n tx_buffer| s_B_1)) (= |probe_tx_buffer_B_2| (|SPISlave_n tx_buffer| s_B_2)) (= |probe_tx_buffer_B_3| (|SPISlave_n tx_buffer| s_B_3)) (= |probe_tx_buffer_B_4| (|SPISlave_n tx_buffer| s_B_4)) (= |probe_tx_buffer_B_5| (|SPISlave_n tx_buffer| s_B_5)) (= |probe_tx_buffer_B_6| (|SPISlave_n tx_buffer| s_B_6)) (= |probe_tx_buffer_B_7| (|SPISlave_n tx_buffer| s_B_7)) (= |probe_tx_buffer_B_8| (|SPISlave_n tx_buffer| s_B_8)) ))
; End of unrolling constraints
